%BLOCK LATTICE_CART
2.154433 0 0
0 2.154433 0
0 0 2.154433
%ENDBLOCK LATTICE_CART

#VARVOL=10 

#SPECIES=C%NUM=3,N%NUM=4
 
#SYMMOPS=1
#NFORM=18
#SLACK=0.25
#OVERLAP=0.1
#MINSEP=1-2 AUTO
#COMPACT
#CELLADAPT
#CONS=0.4
 
SYMMETRY_GENERATE
SNAP_TO_SYMMETRY
 
