%BLOCK LATTICE_CART
2.154433 0 0
0 2.154433 0
0 0 2.154433
%ENDBLOCK LATTICE_CART

#VARVOL=10 

#SPECIES=C%NUM=3,N%NUM=4
 
#SYMMOPS=1
##SGRANK=20
#NFORM=18
#SLACK=0.25
#OVERLAP=0.1
#MINSEP=1-2 AUTO
#COMPACT
#CELLADAPT
#CONS=0.4
 
KPOINTS_MP_SPACING 0.07
 
SYMMETRY_GENERATE
SNAP_TO_SYMMETRY
 
%BLOCK SPECIES_POT
QC5
%ENDBLOCK SPECIES_POT
 
%BLOCK EXTERNAL_PRESSURE
0 0 0
0 0
0
%ENDBLOCK EXTERNAL_PRESSURE
