%BLOCK LATTICE_CART
   4.01724   0.00000   0.00000
   0.00000   4.01724   0.00000
   0.00000   0.00000   4.01724
%ENDBLOCK LATTICE_CART

#TARGVOL=10-20

%BLOCK POSITIONS_ABS
Li      0.00000   0.00000   0.00000 # 1-R3 % NUM=1
H       2.00862   0.00000   0.00000 # 2-R3 % NUM=1
%ENDBLOCK POSITIONS_ABS

#SYMMOPS=1
##SGRANK=20
#NFORM=4
#SLACK=0.25
#OVERLAP=0.1
#COMPACT
#CELLADAPT
#MINSEP=1.0 Li-Li=2.84 Li-H=2.01 H-H=2.84 
