%block LATTICE_CART
ang
  4.0172388   0.0000000   0.0000000
  0.0000000   4.0172388   0.0000000
  0.0000000   0.0000000   4.0172388
%endblock LATTICE_CART

%block POSITIONS_FRAC
 Li  0.000000000  0.000000000  0.000000000
 Li  0.500000000  0.500000000  0.000000000
 Li  0.500000000  0.000000000  0.500000000
 Li  0.000000000  0.500000000  0.500000000
  H  0.500000000  0.000000000  0.000000000
  H  0.000000000  0.500000000  0.000000000
  H  0.000000000  0.000000000  0.500000000
  H  0.500000000  0.500000000  0.500000000
%endblock POSITIONS_FRAC
