#              Generated by Buildcell
#
# at 16:24:40 (GMT+2.0) 10th June 2025
# in /Users/mc2552/Chaoite/TEST/Tuto_Pascal/ljc_castep_airss_eddp_practicals-master/LJC_practical_AIRSS_EDDP/test
# on MTG-SHJ29-MBP.local
# by mc2552
#
# compiler GCC version 14.2.0
# options -cpp -iprefix /opt/homebrew/Cellar/gcc/14.2.0_1/bin/../lib/gcc/current/gcc/aarch64-apple-darwin24/14/ -D__DYNAMIC__ -fPIC -mmacosx-version-min=15.0.0 -mcpu=apple-m1 -mlittle-endian -mabi=lp64 -g -Og
#
# seed -2063652522 -1037553249  2004278888  2089401816   890429857  -779942771 -1772560880   432160028
#
#      Author: C. J. Pickard (cjp20@cam.ac.uk)
#                Space group: P1
#

%BLOCK LATTICE_ABC
    2.859102500    5.041542791    5.357567153
   98.654887213  103.916721255   90.957095845
%ENDBLOCK LATTICE_ABC

%BLOCK POSITIONS_FRAC
  Li      0.249495949      0.378512420      0.305093895
  Li     -0.429916676      0.101275067     -0.201234223
  Li      0.049750037     -0.387794094     -0.160497968
  Li      0.744606755     -0.119394738      0.288919101
   H     -0.042661632      0.259279171     -0.418762499
   H      0.149188098      0.011643534      0.065131356
   H     -0.346822624     -0.491763773      0.079260832
   H     -0.600708433     -0.242708562     -0.457309469
%ENDBLOCK POSITIONS_FRAC

